units lj
atom_style bond

boundary p p p
timestep 0.001

read_data surfactant.atoms

mass 1 1.0
mass 2 1.0
mass 3 1.0

pair_style lj/cut 3.0
pair_coeff 1 1 1.0 1.0 3.0
pair_coeff 2 2 1.0 1.0 3.0
pair_coeff 3 3 1.0 1.0 3.0
pair_coeff 1 2 1.0 1.0 1.2
pair_coeff 1 3 1.0 1.0 3.0
pair_coeff 2 3 1.0 1.0 1.2

bond_style fene
bond_coeff 1 30.0 1.5 1.5 1.0

neighbor 0.3 bin
neigh_modify every 20 delay 0 check no

fix 1 all nve

dump id all atom 100 surfactant.lammpstrj

thermo 500
run 300000
